
Gurobi 8.1.1 (mac64, Python) logging started Sat Nov 16 22:29:18 2019

Academic license - for non-commercial use only
Optimize a model with 7 rows, 42 columns and 84 nonzeros
Variable types: 0 continuous, 42 integer (0 binary)
Coefficient statistics:
  Matrix range     [1e+00, 1e+00]
  Objective range  [3e-03, 3e-03]
  Bounds range     [1e+01, 1e+02]
  RHS range        [6e+01, 1e+02]
Found heuristic solution: objective 2.2770000
Presolve removed 1 rows and 16 columns
Presolve time: 0.01s
Presolved: 6 rows, 26 columns, 52 nonzeros
Variable types: 0 continuous, 26 integer (0 binary)

Root relaxation: objective 1.359000e+00, 9 iterations, 0.00 seconds

    Nodes    |    Current Node    |     Objective Bounds      |     Work
 Expl Unexpl |  Obj  Depth IntInf | Incumbent    BestBd   Gap | It/Node Time

*    0     0               0       1.3590000    1.35900  0.00%     -    0s

Explored 0 nodes (9 simplex iterations) in 0.05 seconds
Thread count was 4 (of 4 available processors)

Solution count 2: 1.359 2.277 

Optimal solution found (tolerance 1.00e-04)
Best objective 1.359000000000e+00, best bound 1.359000000000e+00, gap 0.0000%
Optimize a model with 7 rows, 42 columns and 42 nonzeros
Variable types: 0 continuous, 42 integer (0 binary)
Coefficient statistics:
  Matrix range     [1e+00, 1e+00]
  Objective range  [3e-03, 3e-03]
  Bounds range     [1e+01, 1e+02]
  RHS range        [6e+01, 1e+02]
Found heuristic solution: objective 2.5350000
Found heuristic solution: objective 1.8780000
Presolve removed 3 rows and 34 columns
Presolve time: 0.01s
Presolved: 4 rows, 8 columns, 16 nonzeros
Found heuristic solution: objective 1.4400000
Found heuristic solution: objective 1.4190000
Variable types: 0 continuous, 8 integer (0 binary)

Root relaxation: cutoff, 2 iterations, 0.00 seconds

    Nodes    |    Current Node    |     Objective Bounds      |     Work
 Expl Unexpl |  Obj  Depth IntInf | Incumbent    BestBd   Gap | It/Node Time

     0     0     cutoff    0         1.41900    1.41900  0.00%     -    0s

Explored 0 nodes (2 simplex iterations) in 0.10 seconds
Thread count was 4 (of 4 available processors)

Solution count 2: 1.419 1.44 

Optimal solution found (tolerance 1.00e-04)
Best objective 1.419000000000e+00, best bound 1.419000000000e+00, gap 0.0000%
Optimize a model with 7 rows, 42 columns and 84 nonzeros
Variable types: 0 continuous, 42 integer (0 binary)
Coefficient statistics:
  Matrix range     [1e+00, 1e+00]
  Objective range  [1e+00, 1e+00]
  Bounds range     [1e+01, 1e+02]
  RHS range        [6e+01, 1e+02]
Found heuristic solution: objective 759.0000000
Presolve removed 1 rows and 16 columns
Presolve time: 0.01s
Presolved: 6 rows, 26 columns, 52 nonzeros
Variable types: 0 continuous, 26 integer (0 binary)

Root relaxation: objective 4.530000e+02, 9 iterations, 0.00 seconds

    Nodes    |    Current Node    |     Objective Bounds      |     Work
 Expl Unexpl |  Obj  Depth IntInf | Incumbent    BestBd   Gap | It/Node Time

*    0     0               0     453.0000000  453.00000  0.00%     -    0s

Explored 0 nodes (9 simplex iterations) in 0.06 seconds
Thread count was 4 (of 4 available processors)

Solution count 2: 453 759 

Optimal solution found (tolerance 1.00e-04)
Best objective 4.530000000000e+02, best bound 4.530000000000e+02, gap 0.0000%
Optimize a model with 7 rows, 42 columns and 84 nonzeros
Variable types: 0 continuous, 42 integer (0 binary)
Coefficient statistics:
  Matrix range     [1e+00, 1e+00]
  Objective range  [1e+00, 1e+00]
  Bounds range     [1e+01, 1e+02]
  RHS range        [6e+01, 1e+02]
Found heuristic solution: objective 759.0000000
Presolve removed 1 rows and 16 columns
Presolve time: 0.00s
Presolved: 6 rows, 26 columns, 52 nonzeros
Variable types: 0 continuous, 26 integer (0 binary)

Root relaxation: objective 4.530000e+02, 9 iterations, 0.00 seconds

    Nodes    |    Current Node    |     Objective Bounds      |     Work
 Expl Unexpl |  Obj  Depth IntInf | Incumbent    BestBd   Gap | It/Node Time

*    0     0               0     453.0000000  453.00000  0.00%     -    0s

Explored 0 nodes (9 simplex iterations) in 0.05 seconds
Thread count was 4 (of 4 available processors)

Solution count 2: 453 759 

Optimal solution found (tolerance 1.00e-04)
Best objective 4.530000000000e+02, best bound 4.530000000000e+02, gap 0.0000%
Optimize a model with 7 rows, 42 columns and 84 nonzeros
Variable types: 0 continuous, 42 integer (0 binary)
Coefficient statistics:
  Matrix range     [1e+00, 1e+00]
  Objective range  [1e+00, 1e+00]
  Bounds range     [1e+01, 1e+02]
  RHS range        [6e+01, 1e+02]
Found heuristic solution: objective 759.0000000
Presolve removed 1 rows and 16 columns
Presolve time: 0.00s
Presolved: 6 rows, 26 columns, 52 nonzeros
Variable types: 0 continuous, 26 integer (0 binary)

Root relaxation: objective 4.530000e+02, 9 iterations, 0.00 seconds

    Nodes    |    Current Node    |     Objective Bounds      |     Work
 Expl Unexpl |  Obj  Depth IntInf | Incumbent    BestBd   Gap | It/Node Time

*    0     0               0     453.0000000  453.00000  0.00%     -    0s

Explored 0 nodes (9 simplex iterations) in 0.06 seconds
Thread count was 4 (of 4 available processors)

Solution count 2: 453 759 

Optimal solution found (tolerance 1.00e-04)
Best objective 4.530000000000e+02, best bound 4.530000000000e+02, gap 0.0000%
Optimize a model with 7 rows, 42 columns and 84 nonzeros
Variable types: 0 continuous, 42 integer (0 binary)
Coefficient statistics:
  Matrix range     [1e+00, 1e+00]
  Objective range  [1e+00, 1e+00]
  Bounds range     [0e+00, 0e+00]
  RHS range        [6e+01, 1e+02]
Found heuristic solution: objective 790.0000000
Presolve time: 0.01s
Presolved: 7 rows, 42 columns, 84 nonzeros
Variable types: 0 continuous, 42 integer (0 binary)

Root relaxation: objective 3.930000e+02, 6 iterations, 0.00 seconds

    Nodes    |    Current Node    |     Objective Bounds      |     Work
 Expl Unexpl |  Obj  Depth IntInf | Incumbent    BestBd   Gap | It/Node Time

*    0     0               0     393.0000000  393.00000  0.00%     -    0s

Explored 0 nodes (6 simplex iterations) in 0.08 seconds
Thread count was 4 (of 4 available processors)

Solution count 2: 393 790 

Optimal solution found (tolerance 1.00e-04)
Best objective 3.930000000000e+02, best bound 3.930000000000e+02, gap 0.0000%
Optimize a model with 7 rows, 42 columns and 84 nonzeros
Variable types: 0 continuous, 42 integer (0 binary)
Coefficient statistics:
  Matrix range     [1e+00, 1e+00]
  Objective range  [3e-03, 3e-03]
  Bounds range     [0e+00, 0e+00]
  RHS range        [6e+01, 1e+02]
Found heuristic solution: objective 2.3700000
Presolve time: 0.00s
Presolved: 7 rows, 42 columns, 84 nonzeros
Variable types: 0 continuous, 42 integer (0 binary)

Root relaxation: objective 1.179000e+00, 6 iterations, 0.00 seconds

    Nodes    |    Current Node    |     Objective Bounds      |     Work
 Expl Unexpl |  Obj  Depth IntInf | Incumbent    BestBd   Gap | It/Node Time

*    0     0               0       1.1790000    1.17900  0.00%     -    0s

Explored 0 nodes (6 simplex iterations) in 0.06 seconds
Thread count was 4 (of 4 available processors)

Solution count 2: 1.179 2.37 

Optimal solution found (tolerance 1.00e-04)
Best objective 1.179000000000e+00, best bound 1.179000000000e+00, gap 0.0000%

Gurobi 8.1.1 (mac64, Python) logging started Mon Nov 18 12:06:08 2019

Academic license - for non-commercial use only
Optimize a model with 7 rows, 42 columns and 84 nonzeros
Variable types: 0 continuous, 42 integer (0 binary)
Coefficient statistics:
  Matrix range     [1e+00, 1e+00]
  Objective range  [3e-03, 3e-03]
  Bounds range     [0e+00, 0e+00]
  RHS range        [6e+01, 1e+02]
Found heuristic solution: objective 2.3700000
Presolve time: 0.02s
Presolved: 7 rows, 42 columns, 84 nonzeros
Variable types: 0 continuous, 42 integer (0 binary)

Root relaxation: objective 1.179000e+00, 6 iterations, 0.01 seconds

    Nodes    |    Current Node    |     Objective Bounds      |     Work
 Expl Unexpl |  Obj  Depth IntInf | Incumbent    BestBd   Gap | It/Node Time

*    0     0               0       1.1790000    1.17900  0.00%     -    0s

Explored 0 nodes (6 simplex iterations) in 0.07 seconds
Thread count was 4 (of 4 available processors)

Solution count 2: 1.179 2.37 

Optimal solution found (tolerance 1.00e-04)
Best objective 1.179000000000e+00, best bound 1.179000000000e+00, gap 0.0000%

Gurobi 8.1.1 (mac64, Python) logging started Sun Nov 24 16:06:07 2019

Academic license - for non-commercial use only
Optimize a model with 7 rows, 42 columns and 84 nonzeros
Variable types: 0 continuous, 42 integer (0 binary)
Coefficient statistics:
  Matrix range     [1e+00, 1e+00]
  Objective range  [3e+00, 3e+00]
  Bounds range     [0e+00, 0e+00]
  RHS range        [6e+01, 1e+02]
Found heuristic solution: objective 2370.0000000
Presolve time: 0.02s
Presolved: 7 rows, 42 columns, 84 nonzeros
Variable types: 0 continuous, 42 integer (0 binary)

Root relaxation: objective 1.179000e+03, 6 iterations, 0.01 seconds

    Nodes    |    Current Node    |     Objective Bounds      |     Work
 Expl Unexpl |  Obj  Depth IntInf | Incumbent    BestBd   Gap | It/Node Time

*    0     0               0    1179.0000000 1179.00000  0.00%     -    0s

Explored 0 nodes (6 simplex iterations) in 0.13 seconds
Thread count was 4 (of 4 available processors)

Solution count 2: 1179 2370 

Optimal solution found (tolerance 1.00e-04)
Best objective 1.179000000000e+03, best bound 1.179000000000e+03, gap 0.0000%
